Route #1: 43 23 22 50 38 9 12 5 40
Route #2: 18 10 17 51 44 14 28 8 46
Route #3: 41 45 29 37 15 7 19
Route #4: 47 21 26 39 4 42 24 6 53
Route #5: 27 35 16 52 1 25
Route #6: 3 36 32 48
Route #7: 2 34 30 54 31 20 55 11 33 49 13
Cost 711
Time 0.087851
